data/lp_files/pEFS/40_2.lp
\ Model foo
\ LP format - for model browsing. Use MPS format to capture full model detail.
Minimize
  z
Subject To
 allocateEach[1]: x[1,1] + x[2,1] = 1
 allocateEach[2]: x[1,2] + x[2,2] = 1
 allocateEach[3]: x[1,3] + x[2,3] = 1
 allocateEach[4]: x[1,4] + x[2,4] = 1
 allocateEach[5]: x[1,5] + x[2,5] = 1
 allocateEach[6]: x[1,6] + x[2,6] = 1
 allocateEach[7]: x[1,7] + x[2,7] = 1
 allocateEach[8]: x[1,8] + x[2,8] = 1
 allocateEach[9]: x[1,9] + x[2,9] = 1
 allocateEach[10]: x[1,10] + x[2,10] = 1
 allocateEach[11]: x[1,11] + x[2,11] = 1
 allocateEach[12]: x[1,12] + x[2,12] = 1
 allocateEach[13]: x[1,13] + x[2,13] = 1
 allocateEach[14]: x[1,14] + x[2,14] = 1
 allocateEach[15]: x[1,15] + x[2,15] = 1
 allocateEach[16]: x[1,16] + x[2,16] = 1
 allocateEach[17]: x[1,17] + x[2,17] = 1
 allocateEach[18]: x[1,18] + x[2,18] = 1
 allocateEach[19]: x[1,19] + x[2,19] = 1
 allocateEach[20]: x[1,20] + x[2,20] = 1
 allocateAllCash: cashProportion[1] + cashProportion[2] = 1
 findWorstP[1,2]: z + 0.012791758696264 cashProportion[1]
   - 0.012791758696264 cashProportion[2] + 0.0213025421488449 x[1,1]
   + 0.00335144077842116 x[1,2] + 0.0304784970536316 x[1,3]
   + 0.0331477107015853 x[1,4] + 0.0660907532640304 x[1,5]
   + 0.0255835173925279 x[1,6] + 0.0451207968412884 x[1,7]
   + 0.0122715605092826 x[1,8] + 0.0795476834125001 x[1,9]
   + 0.0568636313244587 x[1,10] + 0.0521903754807569 x[1,11]
   + 0.0775521690558829 x[1,12] + 0.0731176927078448 x[1,13]
   + 0.0698088911250778 x[1,14] + 0.00298474369579492 x[1,15]
   + 0.056795408611412 x[1,16] + 0.0484637097805787 x[1,17]
   + 0.0791554028124813 x[1,18] + 0.0797864629081637 x[1,19]
   + 0.073595251699172 x[1,20] - 0.0213025421488449 x[2,1]
   - 0.00335144077842116 x[2,2] - 0.0304784970536316 x[2,3]
   - 0.0331477107015853 x[2,4] - 0.0660907532640304 x[2,5]
   - 0.0255835173925279 x[2,6] - 0.0451207968412884 x[2,7]
   - 0.0122715605092826 x[2,8] - 0.0795476834125001 x[2,9]
   - 0.0568636313244587 x[2,10] - 0.0521903754807569 x[2,11]
   - 0.0775521690558829 x[2,12] - 0.0731176927078448 x[2,13]
   - 0.0698088911250778 x[2,14] - 0.00298474369579492 x[2,15]
   - 0.056795408611412 x[2,16] - 0.0484637097805787 x[2,17]
   - 0.0791554028124813 x[2,18] - 0.0797864629081637 x[2,19]
   - 0.073595251699172 x[2,20] >= 0
 findWorstP[2,1]: z - 0.0157056550828735 cashProportion[1]
   + 0.0157056550828735 cashProportion[2] - 0.007947061471934 x[1,1]
   - 0.0208675803867779 x[1,2] - 0.1005371334038343 x[1,3]
   - 0.0199775932654151 x[1,4] - 0.0763818358863748 x[1,5]
   - 0.0666862114818809 x[1,6] - 0.0390756698461893 x[1,7]
   - 0.0672830263750301 x[1,8] - 0.059723371061807 x[1,9]
   - 0.0860879307275907 x[1,10] - 0.0502057440815857 x[1,11]
   - 0.077973342268106 x[1,12] - 0.0458709832787126 x[1,13]
   - 0.060225952024459 x[1,14] - 0.067670432533741 x[1,15]
   - 0.00154962463484352 x[1,16] - 0.0201451202529658 x[1,17]
   - 0.0138314469096506 x[1,18] - 0.0517030165328196 x[1,19]
   - 0.0505512684934089 x[1,20] + 0.007947061471934 x[2,1]
   + 0.0208675803867779 x[2,2] + 0.1005371334038343 x[2,3]
   + 0.0199775932654151 x[2,4] + 0.0763818358863748 x[2,5]
   + 0.0666862114818809 x[2,6] + 0.0390756698461893 x[2,7]
   + 0.0672830263750301 x[2,8] + 0.059723371061807 x[2,9]
   + 0.0860879307275907 x[2,10] + 0.0502057440815857 x[2,11]
   + 0.077973342268106 x[2,12] + 0.0458709832787126 x[2,13]
   + 0.060225952024459 x[2,14] + 0.067670432533741 x[2,15]
   + 0.00154962463484352 x[2,16] + 0.0201451202529658 x[2,17]
   + 0.0138314469096506 x[2,18] + 0.0517030165328196 x[2,19]
   + 0.0505512684934089 x[2,20] >= 0
Bounds
 z <= 1
 -infinity <= cashProportion[1] <= 1
 -infinity <= cashProportion[2] <= 1
Binaries
 x[1,1] x[1,2] x[1,3] x[1,4] x[1,5] x[1,6] x[1,7] x[1,8] x[1,9] x[1,10]
 x[1,11] x[1,12] x[1,13] x[1,14] x[1,15] x[1,16] x[1,17] x[1,18] x[1,19]
 x[1,20] x[2,1] x[2,2] x[2,3] x[2,4] x[2,5] x[2,6] x[2,7] x[2,8] x[2,9]
 x[2,10] x[2,11] x[2,12] x[2,13] x[2,14] x[2,15] x[2,16] x[2,17] x[2,18]
 x[2,19] x[2,20]
End
