data/mps_files/pEFS/40_2.mps
NAME foo
ROWS
 N  OBJ
 E  allocateEach[1]
 E  allocateEach[2]
 E  allocateEach[3]
 E  allocateEach[4]
 E  allocateEach[5]
 E  allocateEach[6]
 E  allocateEach[7]
 E  allocateEach[8]
 E  allocateEach[9]
 E  allocateEach[10]
 E  allocateEach[11]
 E  allocateEach[12]
 E  allocateEach[13]
 E  allocateEach[14]
 E  allocateEach[15]
 E  allocateEach[16]
 E  allocateEach[17]
 E  allocateEach[18]
 E  allocateEach[19]
 E  allocateEach[20]
 E  allocateAllCash
 G  findWorstP[1,2]
 G  findWorstP[2,1]
COLUMNS
    z         OBJ       1
    z         findWorstP[1,2]  1
    z         findWorstP[2,1]  1
    cashProportion[1]  allocateAllCash  1
    cashProportion[1]  findWorstP[1,2]  1.2791758696263957e-02
    cashProportion[1]  findWorstP[2,1]  -1.5705655082873513e-02
    cashProportion[2]  allocateAllCash  1
    cashProportion[2]  findWorstP[1,2]  -1.2791758696263957e-02
    cashProportion[2]  findWorstP[2,1]  1.5705655082873513e-02
    MARKER    'MARKER'                 'INTORG'
    x[1,1]    allocateEach[1]  1
    x[1,1]    findWorstP[1,2]  2.1302542148844906e-02
    x[1,1]    findWorstP[2,1]  -7.9470614719339954e-03
    x[1,2]    allocateEach[2]  1
    x[1,2]    findWorstP[1,2]  3.3514407784211563e-03
    x[1,2]    findWorstP[2,1]  -2.0867580386777940e-02
    x[1,3]    allocateEach[3]  1
    x[1,3]    findWorstP[1,2]  3.0478497053631582e-02
    x[1,3]    findWorstP[2,1]  -1.0053713340383431e-01
    x[1,4]    allocateEach[4]  1
    x[1,4]    findWorstP[1,2]  3.3147710701585328e-02
    x[1,4]    findWorstP[2,1]  -1.9977593265415105e-02
    x[1,5]    allocateEach[5]  1
    x[1,5]    findWorstP[1,2]  6.6090753264030438e-02
    x[1,5]    findWorstP[2,1]  -7.6381835886374844e-02
    x[1,6]    allocateEach[6]  1
    x[1,6]    findWorstP[1,2]  2.5583517392527910e-02
    x[1,6]    findWorstP[2,1]  -6.6686211481880933e-02
    x[1,7]    allocateEach[7]  1
    x[1,7]    findWorstP[1,2]  4.5120796841288391e-02
    x[1,7]    findWorstP[2,1]  -3.9075669846189293e-02
    x[1,8]    allocateEach[8]  1
    x[1,8]    findWorstP[1,2]  1.2271560509282554e-02
    x[1,8]    findWorstP[2,1]  -6.7283026375030114e-02
    x[1,9]    allocateEach[9]  1
    x[1,9]    findWorstP[1,2]  7.9547683412500111e-02
    x[1,9]    findWorstP[2,1]  -5.9723371061807008e-02
    x[1,10]   allocateEach[10]  1
    x[1,10]   findWorstP[1,2]  5.6863631324458694e-02
    x[1,10]   findWorstP[2,1]  -8.6087930727590675e-02
    x[1,11]   allocateEach[11]  1
    x[1,11]   findWorstP[1,2]  5.2190375480756931e-02
    x[1,11]   findWorstP[2,1]  -5.0205744081585658e-02
    x[1,12]   allocateEach[12]  1
    x[1,12]   findWorstP[1,2]  7.7552169055882927e-02
    x[1,12]   findWorstP[2,1]  -7.7973342268106025e-02
    x[1,13]   allocateEach[13]  1
    x[1,13]   findWorstP[1,2]  7.3117692707844767e-02
    x[1,13]   findWorstP[2,1]  -4.5870983278712564e-02
    x[1,14]   allocateEach[14]  1
    x[1,14]   findWorstP[1,2]  6.9808891125077821e-02
    x[1,14]   findWorstP[2,1]  -6.0225952024458962e-02
    x[1,15]   allocateEach[15]  1
    x[1,15]   findWorstP[1,2]  2.9847436957949232e-03
    x[1,15]   findWorstP[2,1]  -0.067670432533741
    x[1,16]   allocateEach[16]  1
    x[1,16]   findWorstP[1,2]  5.6795408611411961e-02
    x[1,16]   findWorstP[2,1]  -1.5496246348435199e-03
    x[1,17]   allocateEach[17]  1
    x[1,17]   findWorstP[1,2]  4.8463709780578706e-02
    x[1,17]   findWorstP[2,1]  -2.0145120252965755e-02
    x[1,18]   allocateEach[18]  1
    x[1,18]   findWorstP[1,2]  7.9155402812481346e-02
    x[1,18]   findWorstP[2,1]  -1.3831446909650606e-02
    x[1,19]   allocateEach[19]  1
    x[1,19]   findWorstP[1,2]  0.0797864629081637
    x[1,19]   findWorstP[2,1]  -0.0517030165328196
    x[1,20]   allocateEach[20]  1
    x[1,20]   findWorstP[1,2]  7.3595251699171957e-02
    x[1,20]   findWorstP[2,1]  -5.0551268493408873e-02
    x[2,1]    allocateEach[1]  1
    x[2,1]    findWorstP[1,2]  -2.1302542148844906e-02
    x[2,1]    findWorstP[2,1]  7.9470614719339954e-03
    x[2,2]    allocateEach[2]  1
    x[2,2]    findWorstP[1,2]  -3.3514407784211563e-03
    x[2,2]    findWorstP[2,1]  2.0867580386777940e-02
    x[2,3]    allocateEach[3]  1
    x[2,3]    findWorstP[1,2]  -3.0478497053631582e-02
    x[2,3]    findWorstP[2,1]  1.0053713340383431e-01
    x[2,4]    allocateEach[4]  1
    x[2,4]    findWorstP[1,2]  -3.3147710701585328e-02
    x[2,4]    findWorstP[2,1]  1.9977593265415105e-02
    x[2,5]    allocateEach[5]  1
    x[2,5]    findWorstP[1,2]  -6.6090753264030438e-02
    x[2,5]    findWorstP[2,1]  7.6381835886374844e-02
    x[2,6]    allocateEach[6]  1
    x[2,6]    findWorstP[1,2]  -2.5583517392527910e-02
    x[2,6]    findWorstP[2,1]  6.6686211481880933e-02
    x[2,7]    allocateEach[7]  1
    x[2,7]    findWorstP[1,2]  -4.5120796841288391e-02
    x[2,7]    findWorstP[2,1]  3.9075669846189293e-02
    x[2,8]    allocateEach[8]  1
    x[2,8]    findWorstP[1,2]  -1.2271560509282554e-02
    x[2,8]    findWorstP[2,1]  6.7283026375030114e-02
    x[2,9]    allocateEach[9]  1
    x[2,9]    findWorstP[1,2]  -7.9547683412500111e-02
    x[2,9]    findWorstP[2,1]  5.9723371061807008e-02
    x[2,10]   allocateEach[10]  1
    x[2,10]   findWorstP[1,2]  -5.6863631324458694e-02
    x[2,10]   findWorstP[2,1]  8.6087930727590675e-02
    x[2,11]   allocateEach[11]  1
    x[2,11]   findWorstP[1,2]  -5.2190375480756931e-02
    x[2,11]   findWorstP[2,1]  5.0205744081585658e-02
    x[2,12]   allocateEach[12]  1
    x[2,12]   findWorstP[1,2]  -7.7552169055882927e-02
    x[2,12]   findWorstP[2,1]  7.7973342268106025e-02
    x[2,13]   allocateEach[13]  1
    x[2,13]   findWorstP[1,2]  -7.3117692707844767e-02
    x[2,13]   findWorstP[2,1]  4.5870983278712564e-02
    x[2,14]   allocateEach[14]  1
    x[2,14]   findWorstP[1,2]  -6.9808891125077821e-02
    x[2,14]   findWorstP[2,1]  6.0225952024458962e-02
    x[2,15]   allocateEach[15]  1
    x[2,15]   findWorstP[1,2]  -2.9847436957949232e-03
    x[2,15]   findWorstP[2,1]  0.067670432533741
    x[2,16]   allocateEach[16]  1
    x[2,16]   findWorstP[1,2]  -5.6795408611411961e-02
    x[2,16]   findWorstP[2,1]  1.5496246348435199e-03
    x[2,17]   allocateEach[17]  1
    x[2,17]   findWorstP[1,2]  -4.8463709780578706e-02
    x[2,17]   findWorstP[2,1]  2.0145120252965755e-02
    x[2,18]   allocateEach[18]  1
    x[2,18]   findWorstP[1,2]  -7.9155402812481346e-02
    x[2,18]   findWorstP[2,1]  1.3831446909650606e-02
    x[2,19]   allocateEach[19]  1
    x[2,19]   findWorstP[1,2]  -0.0797864629081637
    x[2,19]   findWorstP[2,1]  0.0517030165328196
    x[2,20]   allocateEach[20]  1
    x[2,20]   findWorstP[1,2]  -7.3595251699171957e-02
    x[2,20]   findWorstP[2,1]  5.0551268493408873e-02
    MARKER    'MARKER'                 'INTEND'
RHS
    RHS1      allocateEach[1]  1
    RHS1      allocateEach[2]  1
    RHS1      allocateEach[3]  1
    RHS1      allocateEach[4]  1
    RHS1      allocateEach[5]  1
    RHS1      allocateEach[6]  1
    RHS1      allocateEach[7]  1
    RHS1      allocateEach[8]  1
    RHS1      allocateEach[9]  1
    RHS1      allocateEach[10]  1
    RHS1      allocateEach[11]  1
    RHS1      allocateEach[12]  1
    RHS1      allocateEach[13]  1
    RHS1      allocateEach[14]  1
    RHS1      allocateEach[15]  1
    RHS1      allocateEach[16]  1
    RHS1      allocateEach[17]  1
    RHS1      allocateEach[18]  1
    RHS1      allocateEach[19]  1
    RHS1      allocateEach[20]  1
    RHS1      allocateAllCash  1
BOUNDS
 UP BND1      z         1
 MI BND1      cashProportion[1]
 UP BND1      cashProportion[1]  1
 MI BND1      cashProportion[2]
 UP BND1      cashProportion[2]  1
 BV BND1      x[1,1]  
 BV BND1      x[1,2]  
 BV BND1      x[1,3]  
 BV BND1      x[1,4]  
 BV BND1      x[1,5]  
 BV BND1      x[1,6]  
 BV BND1      x[1,7]  
 BV BND1      x[1,8]  
 BV BND1      x[1,9]  
 BV BND1      x[1,10] 
 BV BND1      x[1,11] 
 BV BND1      x[1,12] 
 BV BND1      x[1,13] 
 BV BND1      x[1,14] 
 BV BND1      x[1,15] 
 BV BND1      x[1,16] 
 BV BND1      x[1,17] 
 BV BND1      x[1,18] 
 BV BND1      x[1,19] 
 BV BND1      x[1,20] 
 BV BND1      x[2,1]  
 BV BND1      x[2,2]  
 BV BND1      x[2,3]  
 BV BND1      x[2,4]  
 BV BND1      x[2,5]  
 BV BND1      x[2,6]  
 BV BND1      x[2,7]  
 BV BND1      x[2,8]  
 BV BND1      x[2,9]  
 BV BND1      x[2,10] 
 BV BND1      x[2,11] 
 BV BND1      x[2,12] 
 BV BND1      x[2,13] 
 BV BND1      x[2,14] 
 BV BND1      x[2,15] 
 BV BND1      x[2,16] 
 BV BND1      x[2,17] 
 BV BND1      x[2,18] 
 BV BND1      x[2,19] 
 BV BND1      x[2,20] 
ENDATA
